n_res = 4;
rc = [ 0, 0, 0, 0 ];
n_tasks = 30;
d = [ 4, 1, 5, 9, 10, 6, 1, 9, 2, 8, 8, 8, 2, 2, 10, 8, 10, 2, 10, 5, 3, 6, 5, 10, 10, 8, 10, 2, 10, 3 ];
rr = [| 0, 0, 0, 0, 0, 0, 0, 0, 0, 0, 0, 0, 0, 0, 0, 0, 0, 0, 0, 0, 0, 0, 0, 0, 0, 0, 0, 0, 0, 0
      | 0, 0, 0, 0, 0, 0, 0, 0, 0, 0, 0, 0, 0, 0, 0, 0, 0, 0, 0, 0, 0, 0, 0, 0, 0, 0, 0, 0, 0, 0
      | 0, 0, 0, 0, 0, 0, 0, 0, 0, 0, 0, 0, 0, 0, 0, 0, 0, 0, 0, 0, 0, 0, 0, 0, 0, 0, 0, 0, 0, 0
      | 0, 0, 0, 0, 0, 0, 0, 0, 0, 0, 0, 0, 0, 0, 0, 0, 0, 0, 0, 0, 0, 0, 0, 0, 0, 0, 0, 0, 0, 0 |];
suc = [ { 4, 6, 15 },
       { 5, 13 },
       { 7, 26 },
       { 14, 17, 29 },
       { 9, 10, 25 },
       { 20 },
       { 8, 10, 28 },
       { 18, 21 },
       { 16 },
       { 11, 12, 19 },
       { 18 },
       { 21 },
       { 21 },
       { 19, 24, 27 },
       { 27 },
       { 29 },
       { 22 },
       { 24 },
       { 30 },
       { 23 },
       { 24 },
       { 23 },
       { 25 },
       { 30 },
       { 30 },
       { 27 },
       { 28 },
       {  },
       {  },
       {  } ];
